p tw 85 1237
0 1
0 2
0 3
0 4
0 5
0 6
0 7
0 8
0 9
0 15
0 37
0 45
0 46
0 47
0 48
0 49
0 50
0 51
0 52
0 53
1 2
1 3
1 4
1 5
1 6
1 7
1 8
1 9
1 23
1 24
1 26
1 27
1 28
1 29
1 30
1 31
1 32
1 33
1 34
1 11
1 15
1 18
1 40
1 44
1 46
1 49
1 53
1 65
1 66
1 36
1 38
1 41
1 51
1 55
1 58
1 61
1 62
1 81
2 3
2 4
2 5
2 6
2 7
2 8
2 9
2 13
2 25
2 29
2 32
2 38
2 41
2 44
2 50
2 58
2 59
2 12
2 14
2 26
2 54
2 60
2 61
2 62
2 63
2 64
2 15
2 30
2 40
2 47
2 56
2 67
2 68
3 4
3 5
3 6
3 7
3 8
3 9
3 11
3 12
3 15
3 19
3 20
3 21
3 22
3 23
3 24
3 25
3 35
3 36
3 37
3 38
3 39
3 40
3 41
3 42
3 43
3 44
3 13
3 29
3 32
3 50
3 58
3 59
3 30
3 47
3 56
3 67
3 68
3 18
3 45
3 46
3 61
3 70
3 72
3 82
4 5
4 6
4 7
4 8
4 9
4 35
4 36
4 37
4 38
4 39
4 40
4 41
4 42
4 43
4 44
4 11
4 15
4 18
4 46
4 49
4 53
4 65
4 66
4 14
4 21
4 30
4 45
4 59
4 73
4 75
4 76
4 27
4 52
4 77
4 78
4 79
5 6
5 7
5 8
5 9
5 10
5 11
5 12
5 13
5 14
5 15
5 16
5 17
5 18
5 19
5 36
5 38
5 41
5 51
5 55
5 58
5 61
5 62
5 81
6 7
6 8
6 9
6 15
6 37
6 45
6 46
6 47
6 48
6 49
6 50
6 51
6 52
6 53
6 25
6 36
6 39
6 41
6 54
6 55
6 56
6 57
6 58
6 17
6 18
6 19
6 30
6 74
6 75
7 8
7 9
7 20
7 25
7 34
7 47
7 49
7 54
7 58
7 66
7 69
7 70
7 71
7 72
7 14
7 21
7 30
7 45
7 53
7 59
7 65
7 73
7 75
7 76
7 27
7 52
7 77
7 78
7 79
8 9
8 27
8 49
8 52
8 75
8 76
8 77
8 78
8 79
9 12
9 14
9 26
9 44
9 54
9 58
9 60
9 61
9 62
9 63
9 64
9 27
9 49
9 52
9 75
9 76
9 77
9 78
9 79
9 17
9 18
9 19
9 30
9 39
9 48
9 55
9 74
10 11
10 12
10 13
10 14
10 15
10 16
10 17
10 18
10 19
11 12
11 13
11 14
11 15
11 16
11 17
11 18
11 19
11 20
11 21
11 22
11 23
11 24
11 25
11 40
11 44
11 46
11 49
11 53
11 65
11 66
11 28
11 30
11 32
11 36
11 55
11 56
11 80
11 82
12 13
12 14
12 15
12 16
12 17
12 18
12 19
12 20
12 21
12 22
12 23
12 24
12 25
12 26
12 44
12 54
12 58
12 60
12 61
12 62
12 63
12 64
13 14
13 15
13 16
13 17
13 18
13 19
13 25
13 29
13 32
13 38
13 41
13 44
13 50
13 58
13 59
13 39
13 48
13 56
13 61
13 77
13 81
13 83
14 15
14 16
14 17
14 18
14 19
14 26
14 44
14 54
14 58
14 60
14 61
14 62
14 63
14 64
14 21
14 31
14 36
14 42
14 57
14 72
14 73
14 74
14 75
14 30
14 45
14 53
14 59
14 65
14 76
14 20
14 23
14 28
14 32
14 40
14 55
14 56
14 80
14 82
15 16
15 17
15 18
15 19
15 20
15 21
15 22
15 23
15 24
15 25
15 37
15 45
15 46
15 47
15 48
15 49
15 50
15 51
15 52
15 53
15 40
15 44
15 65
15 66
15 29
15 30
15 32
15 38
15 56
15 67
15 68
16 17
16 18
16 19
17 18
17 19
17 30
17 39
17 48
17 55
17 74
17 75
18 19
18 40
18 44
18 46
18 49
18 53
18 65
18 66
18 36
18 38
18 41
18 51
18 55
18 58
18 61
18 62
18 81
18 30
18 39
18 48
18 74
18 75
18 35
18 45
18 59
18 70
18 72
18 82
19 20
19 21
19 22
19 23
19 24
19 25
19 30
19 39
19 48
19 55
19 74
19 75
19 35
19 38
19 45
19 46
19 58
19 59
19 61
19 70
19 72
19 82
20 21
20 22
20 23
20 24
20 25
20 34
20 47
20 49
20 54
20 58
20 66
20 69
20 70
20 71
20 72
20 28
20 30
20 32
20 36
20 40
20 55
20 56
20 80
20 82
21 22
21 23
21 24
21 25
21 31
21 36
21 42
21 57
21 60
21 63
21 72
21 73
21 74
21 75
21 30
21 45
21 53
21 59
21 65
21 76
22 23
22 24
22 25
22 27
22 31
22 51
22 56
22 58
22 68
22 72
22 80
22 83
22 84
23 24
23 25
23 26
23 27
23 28
23 29
23 30
23 31
23 32
23 33
23 34
23 51
23 56
23 58
23 68
23 72
23 80
23 83
23 84
23 36
23 40
23 55
23 82
24 25
24 26
24 27
24 28
24 29
24 30
24 31
24 32
24 33
24 34
25 36
25 39
25 41
25 53
25 54
25 55
25 56
25 57
25 58
25 29
25 32
25 38
25 44
25 50
25 59
25 34
25 47
25 49
25 66
25 69
25 70
25 71
25 72
25 27
25 31
25 51
25 68
25 80
25 83
25 84
26 27
26 28
26 29
26 30
26 31
26 32
26 33
26 34
26 44
26 54
26 58
26 60
26 61
26 62
26 63
26 64
26 39
26 50
26 57
26 69
26 77
26 78
26 79
26 80
27 28
27 29
27 30
27 31
27 32
27 33
27 34
27 49
27 52
27 75
27 76
27 77
27 78
27 79
27 51
27 56
27 58
27 68
27 72
27 80
27 83
27 84
28 29
28 30
28 31
28 32
28 33
28 34
28 36
28 40
28 55
28 56
28 80
28 82
29 30
29 31
29 32
29 33
29 34
29 38
29 41
29 44
29 50
29 58
29 59
29 40
29 47
29 56
29 67
29 68
30 31
30 32
30 33
30 34
30 38
30 40
30 47
30 56
30 67
30 68
30 45
30 53
30 59
30 65
30 73
30 75
30 76
30 39
30 48
30 55
30 74
30 36
30 80
30 82
31 32
31 33
31 34
31 36
31 42
31 57
31 60
31 63
31 72
31 73
31 74
31 75
31 51
31 56
31 58
31 68
31 80
31 83
31 84
32 33
32 34
32 38
32 41
32 44
32 50
32 58
32 59
32 40
32 47
32 56
32 67
32 68
32 36
32 55
32 80
32 82
33 34
33 39
33 44
33 50
33 57
33 62
33 69
33 77
33 78
33 79
33 80
34 47
34 49
34 54
34 58
34 66
34 69
34 70
34 71
34 72
35 36
35 37
35 38
35 39
35 40
35 41
35 42
35 43
35 44
35 45
35 46
35 58
35 59
35 61
35 70
35 72
35 82
36 37
36 38
36 39
36 40
36 41
36 42
36 43
36 44
36 53
36 54
36 55
36 56
36 57
36 58
36 60
36 63
36 72
36 73
36 74
36 75
36 51
36 61
36 62
36 81
36 80
36 82
37 38
37 39
37 40
37 41
37 42
37 43
37 44
37 45
37 46
37 47
37 48
37 49
37 50
37 51
37 52
37 53
38 39
38 40
38 41
38 42
38 43
38 44
38 50
38 58
38 59
38 47
38 56
38 67
38 68
38 51
38 55
38 61
38 62
38 81
38 45
38 46
38 70
38 72
38 82
38 48
38 77
38 83
39 40
39 41
39 42
39 43
39 44
39 53
39 54
39 55
39 56
39 57
39 58
39 50
39 62
39 69
39 77
39 78
39 79
39 80
39 48
39 74
39 75
39 59
39 61
39 81
39 83
40 41
40 42
40 43
40 44
40 46
40 49
40 53
40 65
40 66
40 47
40 56
40 67
40 68
40 55
40 80
40 82
41 42
41 43
41 44
41 53
41 54
41 55
41 56
41 57
41 58
41 50
41 59
41 51
41 61
41 62
41 81
41 48
41 77
41 83
42 43
42 44
42 57
42 60
42 63
42 72
42 73
42 74
42 75
43 44
44 50
44 58
44 59
44 54
44 60
44 61
44 62
44 63
44 64
44 46
44 49
44 53
44 65
44 66
44 57
44 69
44 77
44 78
44 79
44 80
44 48
44 56
44 81
44 83
45 46
45 47
45 48
45 49
45 50
45 51
45 52
45 53
45 59
45 65
45 73
45 75
45 76
45 58
45 61
45 70
45 72
45 82
46 47
46 48
46 49
46 50
46 51
46 52
46 53
46 65
46 66
46 58
46 59
46 61
46 70
46 72
46 82
47 48
47 49
47 50
47 51
47 52
47 53
47 56
47 67
47 68
47 54
47 58
47 66
47 69
47 70
47 71
47 72
48 49
48 50
48 51
48 52
48 53
48 55
48 74
48 75
48 56
48 59
48 61
48 77
48 81
48 83
49 50
49 51
49 52
49 53
49 65
49 66
49 54
49 58
49 69
49 70
49 71
49 72
49 75
49 76
49 77
49 78
49 79
50 51
50 52
50 53
50 58
50 59
50 57
50 62
50 69
50 77
50 78
50 79
50 80
51 52
51 53
51 55
51 58
51 61
51 62
51 81
51 56
51 68
51 72
51 80
51 83
51 84
52 53
52 75
52 76
52 77
52 78
52 79
53 54
53 55
53 56
53 57
53 58
53 65
53 66
53 59
53 73
53 75
53 76
54 55
54 56
54 57
54 58
54 60
54 61
54 62
54 63
54 64
54 66
54 69
54 70
54 71
54 72
55 56
55 57
55 58
55 61
55 62
55 81
55 74
55 75
55 80
55 82
56 57
56 58
56 67
56 68
56 59
56 61
56 77
56 81
56 83
56 72
56 80
56 84
56 82
57 58
57 60
57 63
57 72
57 73
57 74
57 75
57 62
57 69
57 77
57 78
57 79
57 80
58 59
58 60
58 61
58 62
58 63
58 64
58 66
58 69
58 70
58 71
58 72
58 81
58 82
58 68
58 80
58 83
58 84
59 65
59 73
59 75
59 76
59 61
59 70
59 72
59 82
59 77
59 81
59 83
60 61
60 62
60 63
60 64
60 72
60 73
60 74
60 75
61 62
61 63
61 64
61 81
61 70
61 72
61 82
61 77
61 83
62 63
62 64
62 69
62 77
62 78
62 79
62 80
62 81
63 64
63 72
63 73
63 74
63 75
65 66
65 73
65 75
65 76
66 69
66 70
66 71
66 72
67 68
68 72
68 80
68 83
68 84
69 70
69 71
69 72
69 77
69 78
69 79
69 80
70 71
70 72
70 82
71 72
72 73
72 74
72 75
72 82
72 80
72 83
72 84
73 74
73 75
73 76
74 75
75 76
75 77
75 78
75 79
76 77
76 78
76 79
77 78
77 79
77 80
77 81
77 83
78 79
78 80
79 80
80 83
80 84
80 82
81 83
83 84
